2025-11-08 23:30:59,723 INFO - Solving the line planning problem with ILP
2025-11-08 23:30:59,723 INFO - Building ILP model with empty trips
2025-11-08 23:30:59,724 INFO - Set parameter Username
2025-11-08 23:30:59,724 INFO - Set parameter LicenseID to value 2711114
2025-11-08 23:30:59,725 INFO - Academic license - for non-commercial use only - expires 2026-09-20
2025-11-08 23:30:59,725 INFO - Set parameter TimeLimit to value 86400
2025-11-09 10:03:11,770 INFO - Set parameter LogFile to value "Results\100_percent\stage_2\budget_10000\gurobi.log"
2025-11-09 10:04:25,364 INFO - Gurobi Optimizer version 12.0.3 build v12.0.3rc0 (win64 - Windows 11+.0 (26200.2))
2025-11-09 10:04:25,364 INFO - 
2025-11-09 10:04:25,365 INFO - CPU model: Intel(R) Core(TM) Ultra 7 265K, instruction set [SSE2|AVX|AVX2]
2025-11-09 10:04:25,367 INFO - Thread count: 20 physical cores, 20 logical processors, using up to 20 threads
2025-11-09 10:04:25,367 INFO - 
2025-11-09 10:04:25,367 INFO - Non-default parameters:
2025-11-09 10:04:25,367 INFO - TimeLimit  86400
2025-11-09 10:04:25,367 INFO - 
2025-11-09 10:04:25,367 INFO - Optimize a model with 16157459 rows, 18577959 columns and 84716811 nonzeros
2025-11-09 10:04:25,791 INFO - Model fingerprint: 0x0bb8a5bb
2025-11-09 10:04:25,797 INFO - Variable types: 0 continuous, 18577959 integer (2449703 binary)
2025-11-09 10:04:25,942 INFO - Coefficient statistics:
2025-11-09 10:04:25,942 INFO -   Matrix range     [1e+00, 1e+12]
2025-11-09 10:04:25,942 INFO -   Objective range  [1e+00, 1e+00]
2025-11-09 10:04:25,945 INFO -   Bounds range     [1e+00, 1e+00]
2025-11-09 10:04:25,945 INFO -   RHS range        [1e+00, 1e+04]
2025-11-09 10:04:25,945 INFO - Warning: Model contains large matrix coefficients
2025-11-09 10:04:25,945 INFO -          Consider reformulating model or setting NumericFocus parameter
2025-11-09 10:04:25,945 INFO -          to avoid numerical issues.
2025-11-09 10:04:27,000 INFO - Found heuristic solution: objective 5.0000000
2025-11-09 10:04:34,421 INFO - Presolve removed 15945749 rows and 4016 columns (presolve time = 5s)...
2025-11-09 10:04:39,824 INFO - Presolve removed 15946899 rows and 378038 columns (presolve time = 11s)...
2025-11-09 10:04:45,015 INFO - Presolve removed 15947123 rows and 427544 columns (presolve time = 16s)...
2025-11-09 10:04:51,492 INFO - Presolve removed 15947184 rows and 428118 columns (presolve time = 22s)...
2025-11-09 10:04:51,492 INFO - Presolve removed 15947184 rows and 428118 columns
2025-11-09 10:04:51,492 INFO - Presolve time: 22.18s
2025-11-09 10:04:51,903 INFO - Presolved: 210275 rows, 18149841 columns, 67413506 nonzeros
2025-11-09 10:05:00,437 INFO - Variable types: 0 continuous, 18149841 integer (2432581 binary)
2025-11-09 10:05:10,602 INFO - Performing another presolve...
2025-11-09 10:05:15,862 INFO - Presolve removed 0 rows and 0 columns (presolve time = 5s)...
2025-11-09 10:05:21,230 INFO - Presolve removed 0 rows and 25 columns (presolve time = 11s)...
2025-11-09 10:05:26,667 INFO - Presolve removed 0 rows and 25 columns (presolve time = 16s)...
2025-11-09 10:05:30,606 INFO - Presolve removed 715 rows and 307 columns (presolve time = 20s)...
2025-11-09 10:05:35,605 INFO - Presolve removed 715 rows and 1022 columns (presolve time = 25s)...
2025-11-09 10:05:42,552 INFO - Presolve removed 740 rows and 1047 columns (presolve time = 32s)...
2025-11-09 10:05:45,845 INFO - Presolve removed 740 rows and 1047 columns (presolve time = 35s)...
2025-11-09 10:05:50,602 INFO - Presolve removed 740 rows and 1047 columns (presolve time = 40s)...
2025-11-09 10:05:55,604 INFO - Presolve removed 740 rows and 1047 columns (presolve time = 45s)...
2025-11-09 10:06:00,602 INFO - Presolve removed 740 rows and 1047 columns (presolve time = 50s)...
2025-11-09 10:06:05,681 INFO - Presolve removed 1185 rows and 1047 columns (presolve time = 55s)...
2025-11-09 10:06:11,756 INFO - Presolve removed 1189 rows and 55239 columns (presolve time = 61s)...
2025-11-09 10:06:17,057 INFO - Presolve removed 1189 rows and 55239 columns (presolve time = 66s)...
2025-11-09 10:06:20,610 INFO - Presolve removed 1189 rows and 55239 columns (presolve time = 70s)...
2025-11-09 10:06:26,550 INFO - Presolve removed 1189 rows and 55239 columns (presolve time = 76s)...
2025-11-09 10:06:30,782 INFO - Presolve removed 1189 rows and 55239 columns (presolve time = 80s)...
2025-11-09 10:06:36,192 INFO - Presolve removed 1189 rows and 55239 columns (presolve time = 86s)...
2025-11-09 10:06:41,601 INFO - Presolve removed 1189 rows and 55239 columns (presolve time = 91s)...
2025-11-09 10:06:45,617 INFO - Presolve removed 1189 rows and 55239 columns (presolve time = 95s)...
2025-11-09 10:06:50,820 INFO - Presolve removed 1189 rows and 55239 columns (presolve time = 100s)...
2025-11-09 10:06:56,836 INFO - Presolve removed 1189 rows and 55239 columns (presolve time = 106s)...
2025-11-09 10:07:01,367 INFO - Presolve removed 1189 rows and 55239 columns (presolve time = 111s)...
2025-11-09 10:07:05,609 INFO - Presolve removed 1189 rows and 55239 columns (presolve time = 115s)...
2025-11-09 10:07:10,606 INFO - Presolve removed 1189 rows and 55239 columns (presolve time = 120s)...
2025-11-09 10:07:15,607 INFO - Presolve removed 1189 rows and 55239 columns (presolve time = 125s)...
2025-11-09 10:07:21,623 INFO - Presolve removed 1189 rows and 55239 columns (presolve time = 131s)...
2025-11-09 10:07:25,827 INFO - Presolve removed 1189 rows and 55239 columns (presolve time = 135s)...
2025-11-09 10:07:32,492 INFO - Presolve removed 1189 rows and 55239 columns (presolve time = 142s)...
2025-11-09 10:07:40,000 INFO - Presolve removed 1189 rows and 55239 columns (presolve time = 149s)...
2025-11-09 10:07:47,352 INFO - Presolve removed 1189 rows and 55239 columns (presolve time = 157s)...
2025-11-09 10:07:54,935 INFO - Presolve removed 1189 rows and 55239 columns (presolve time = 164s)...
2025-11-09 10:08:10,021 INFO - Presolve removed 1189 rows and 55239 columns (presolve time = 179s)...
2025-11-09 10:08:10,410 INFO - Presolve removed 1189 rows and 55239 columns
2025-11-09 10:08:10,410 INFO - Presolve time: 179.81s
2025-11-09 10:08:12,588 INFO - 
2025-11-09 10:08:12,589 INFO - Explored 1 nodes (0 simplex iterations) in 227.22 seconds (259.90 work units)
2025-11-09 10:08:12,589 INFO - Thread count was 20 (of 20 available processors)
2025-11-09 10:08:12,589 INFO - 
2025-11-09 10:08:12,589 INFO - Solution count 1: 5 
2025-11-09 10:08:12,589 INFO - 
2025-11-09 10:08:12,589 INFO - Solve interrupted
2025-11-09 10:08:12,837 INFO - Best objective 5.000000000000e+00, best bound 2.431586000000e+06, gap 48631620.0000%
2025-11-09 10:08:13,097 INFO - Execution time: 227.73354935646057
2025-11-09 10:08:13,115 INFO - Final solution: 5.0
2025-11-09 10:08:17,821 INFO - Exported used lines to Results\100_percent\stage_2\budget_10000\used_lines_empty_trips.csv
2025-11-09 10:08:19,420 INFO - Exported passenger assignments to Results\100_percent\stage_2\budget_10000\passenger_assignments_empty_trips.csv
2025-11-09 10:08:29,468 INFO - Exported flows to Results\100_percent\stage_2\budget_10000\flows_empty_trips.csv
